5
1 81 193
2 402 351
3 179 111
4 283 234
5 462 10
6 223 401
7 439 160
8 213 462
9 21 255
10 241 138
11 115 438
12 412 278
13 161 396
14 251 408
15 228 375
16 357 427
17 52 496
18 384 494
19 284 349
20 495 215
21 458 400
22 293 18
23 478 381
24 24 66
25 7 40
26 61 82
27 197 97
28 82 50
29 77 410
30 418 233
31 15 89
32 269 373
33 433 206
34 486 445
35 391 257
36 192 403
37 224 441
38 119 101
39 254 9
40 41 313
41 65 341
42 264 182
43 121 286
44 234 213
45 442 340
46 187 303
47 172 123
48 427 354
49 14 294
50 129 308